Optimal - objective value 45.00000000
      0 Cmax                   45                       0
      1 C_0                    45                       0
      2 C_1                    45                       0
      3 C_2       7.99999999999998                       0
      4 C_3                    24                       0
      5 C_4                    45                       0
      6 C_5                    22                       0
      7 C_6                     5                       0
      8 x_0_0                   1                       0
     12 x_1_1                   1                     280
     16 x_2_2                   1                       0
     17 x_3_0                   1                       0
     22 x_4_2                   1                       0
     24 x_5_1                   1                     560
     27 x_6_1                   1                     560
     29 d_0_1_0                 1                       0
     31 d_0_1_2                 1                       0
     33 d_0_2_1                 1                       0
     34 d_0_2_2                 1                       0
     36 d_0_3_1                 1                       0
     38 d_0_4_0                 1                       0
     41 d_0_5_0                 1                       0
     43 d_0_5_2                 1                       0
     44 d_0_6_0                 1                       0
     45 d_0_6_1                 1                       0
     46 d_0_6_2                 1                       0
     47 d_1_2_0                 1                       0
     48 d_1_2_1                 1                       0
     49 d_1_2_2                 1                       0
     52 d_1_3_2                 1                       0
     53 d_1_4_0                 1                       0
     54 d_1_4_1                 1                       0
     56 d_1_5_0                 1                       0
     58 d_1_5_2                 1                       0
     61 d_1_6_2                 1                       0
     62 d_2_3_0                 1                       0
     63 d_2_3_1                 1                       0
     64 d_2_3_2                 1                       0
     67 d_2_4_2                 1                       0
     70 d_2_5_2                 1                       0
     71 d_2_6_0                 1                       0
     72 d_2_6_1                 1                       0
     73 d_2_6_2                 1                       0
     74 d_3_4_0                 1                       0
     75 d_3_4_1                 1                       0
     76 d_3_4_2                 1                       0
     77 d_3_5_0                 1                       0
     78 d_3_5_1                 1                       0
     80 d_3_6_0                 1                       0
     82 d_3_6_2                 1                       0
     83 d_4_5_0                 1                       0
     84 d_4_5_1                 1                       0
     86 d_4_6_0                 1                       0
     88 d_4_6_2                 1                       0
     89 d_5_6_0                 1                       0
     91 d_5_6_2                 1                       0
